3560 36729
43621 5708
5669 36841
20241 45259
64703 15866
54262 42361
9434 27939
17983 47661
31946 31572
42583 26213
45812 2376
16353 55249
60428 8988
27342 23094
50476 56999
46958 61238
34526 46682
22056 46812
21486 60014
15203 1276
49971 8290
30201 57148
2454 22776
54790 64865
42865 51515
41494 4555
51791 12207
4915 45568
33088 45566
24745 48479
6402 17931
20125 55248
13705 27622
33092 58133
65205 38580
18093 48412
54332 42353
30656 3264
50488 44745
9983 19079
8952 34789
3445 33311
20376 38233
45174 30664
10309 39931
40805 62313
15408 10792
17854 38898
